StudentsNr = 5;
InstructorsNr = 3;
DaysNr = 1;
SlotsPerDay = 10;
AvailabilitySlotsLenght = 2;
RoomNr = 1;
ProgrammNr = 2;
DegreeNr = 1;
RolesNr = 2;
CoursesNr = 4;
InstructorsProgramm = [{1}, {1, 2}, {2}];
InstructorRolesPerProgramm = [|{2}, {2}|{2}, {2}|];
InstructorsAvailability = [|0, 0, 0, 1, 1, |1, 1, 0, 1, 0, |0, 1, 1, 1, 1|];
StudentsProgramm = [2, 2, 2, 1, 2];
StudentsDegree = [1, 1, 1, 1, 1];
StudentsSupervisorId = [2, 2, 3, 1, 2];
StudentsCourseIds = [{3}, {4}, {2}, {4}, {4}];
StudentsAvailability = [|0, 0, 1, 1, 1, |0, 0, 0, 0, 0, |0, 0, 0, 0, 1, |0, 1, 1, 1, 1, |0, 0, 0, 0, 0|];
TheoryticalMinCard = [0, 1, 2, 1, 1];
CoursesInstructorIds = [{1}, {1}, {1, 2}, {1, 3}];
RolesDemands = [1, 0];
RolesContinuity = [1];
ExamLen = [2, 2, 2, 2, 2];
LunchTsMinLen = 0;
LunchStarts = [5..6];
SupervisorAvailable = 5;
OptimalLunchLenght = [2, 0];
OptimalStartTs = [1, 2];
OptimalFinishTs = [1, 9];
MinimizeRooms = 300;
RolesSoftContinuity = [|1, 2|0, 0|];
SameDegreeInRoom = 20;
Mergeability = 1;
